(declare-fun g () String)
(declare-fun h () String)
(declare-fun i () String)
(declare-fun j () String)
(declare-fun w () String)  
(assert (GrammarIn w (Str2Grm "$ANDEXPRESSION")))     
(assert (GrammarIn g (Str2Grm "$TERM")))
(assert (GrammarIn "samsung" (Str2Grm "$TERM")))
(assert (= j " > samsung"))   
(assert (= w (Concat g j)))    
(check-sat)